data;
set K:= K1 K2 K3 K4 K5 K6 K7 K8 K9 K10 ;

set F:= F1 F2 F3 ;

set Q:= Q1 Q2 ;

param T:= 45;
param V: 
	K1  K2  K3  K4  K5  K6  K7  K8  K9  K10 :=
Q1	1   1   1   1   1   1   0   0   0   0   
Q2	0   0   0   0   0   0   1   1   1   1   
; # if resorce k is of type q

param TF:= 
K1 6
K2 6
K3 6
K4 6
K5 6
K6 6
K7 12
K8 12
K9 12
K10 12
; # number of continuous time slots resource can fly

param TR:= 
K1 2
K2 2
K3 2
K4 2
K5 2
K6 2
K7 4
K8 4
K9 4
K10 4
; #  number of continuous time slots resource k needs to rest between flights

param P:= 
K1 36
K2 36
K3 36
K4 36
K5 36
K6 36
K7 36
K8 36
K9 36
K10 36
; #  number of continuous time slots a pilot can be present including rest times for resource k 

param N:= 
K1 4
K2 4
K3 4
K4 4
K5 4
K6 4
K7 2
K8 2
K9 2
K10 2
; # max number of flights resource k can fly in the total time period

param A: 
	K1  K2  K3  K4  K5  K6  K7  K8  K9  K10 :=
1	1   1   1   1   1   1   1   1   1   1   
2	1   1   1   1   1   1   1   1   1   1   
3	1   1   1   1   1   1   1   1   1   1   
4	1   1   1   1   1   1   1   1   1   1   
5	1   1   1   1   1   1   1   1   1   1   
6	1   1   1   1   1   1   1   1   1   1   
7	1   1   1   1   1   1   1   1   1   1   
8	1   1   1   1   1   1   1   1   1   1   
9	1   1   1   1   1   1   1   1   1   1   
10	1   1   1   1   1   1   1   1   1   1   
11	1   1   1   1   1   1   1   1   1   1   
12	1   1   1   1   1   1   1   1   1   1   
13	1   1   1   1   1   1   1   1   1   1   
14	1   1   1   1   1   1   1   1   1   1   
15	1   1   1   1   1   1   1   1   1   1   
16	1   1   1   1   1   1   1   1   1   1   
17	1   1   1   1   1   1   1   1   1   1   
18	1   1   1   1   1   1   1   1   1   1   
19	1   1   1   1   1   1   1   1   1   1   
20	1   1   1   1   1   1   1   1   1   1   
21	1   1   1   1   1   1   1   1   1   1   
22	1   1   1   1   1   1   1   1   1   1   
23	1   1   1   1   1   1   1   1   1   1   
24	1   1   1   1   1   1   1   1   1   1   
25	1   1   1   1   1   1   1   1   1   1   
26	1   1   1   1   1   1   1   1   1   1   
27	1   1   1   1   1   1   1   1   1   1   
28	1   1   1   1   1   1   1   1   1   1   
29	1   1   1   1   1   1   1   1   1   1   
30	1   1   1   1   1   1   1   1   1   1   
31	1   1   1   1   1   1   1   1   1   1   
32	1   1   1   1   1   1   1   1   1   1   
33	1   1   1   1   1   1   1   1   1   1   
34	1   1   1   1   1   1   1   1   1   1   
35	1   1   1   1   1   1   1   1   1   1   
36	1   1   1   1   1   1   1   1   1   1   
37	1   1   1   1   1   1   1   1   1   1   
38	1   1   1   1   1   1   1   1   1   1   
39	1   1   1   1   1   1   1   1   1   1   
40	1   1   1   1   1   1   1   1   1   1   
41	1   1   1   1   1   1   1   1   1   1   
42	1   1   1   1   1   1   1   1   1   1   
43	1   1   1   1   1   1   1   1   1   1   
44	1   1   1   1   1   1   1   1   1   1   
45	1   1   1   1   1   1   1   1   1   1   
; # availability of resorce k in time slot t

param B: 
	F1  F2  F3  :=
Q1	0   0   1   
Q2	0   0   0   
; # if front f requires resources of type q

param U: 
	F1  F2  F3  :=
K1	0   0   0   
K2	0   0   0   
K3	0   0   0   
K4	0   0   0   
K5	0   0   0   
K6	0   0   0   
K7	1   1   1   
K8	1   1   1   
K9	0   0   0   
K10	1   1   1   
; # transit time of resource

param C:= 
K1 900
K2 900
K3 900
K4 1500
K5 4500
K6 2100
K7 5500
K8 5500
K9 5500
K10 5500
; #  water capacity of resource k

param S:= 
F1 10
F2 9
F3 9
; # max number of resources that can fly at front f in the same time slot

param D:= 

[*,*,F1 ]:  K1    K2    K3    K4    K5    K6    K7    K8    K9    K10   :=
1           1.80  1.80  1.80  1.80  1.44  1.80  1.08  1.08  1.08  1.08  
2           1.80  1.80  1.80  1.80  1.44  1.80  1.08  1.08  1.08  1.08  
3           1.80  1.80  1.80  1.80  1.44  1.80  1.08  1.08  1.08  1.08  
4           1.80  1.80  1.80  1.80  1.44  1.80  1.08  1.08  1.08  1.08  
5           1.80  1.80  1.80  1.80  1.44  1.80  1.08  1.08  1.08  1.08  
6           1.80  1.80  1.80  1.80  1.44  1.80  1.08  1.08  1.08  1.08  
7           1.80  1.80  1.80  1.80  1.44  1.80  1.08  1.08  1.08  1.08  
8           1.80  1.80  1.80  1.80  1.44  1.80  1.08  1.08  1.08  1.08  
9           1.80  1.80  1.80  1.80  1.44  1.80  1.08  1.08  1.08  1.08  
10          1.80  1.80  1.80  1.80  1.44  1.80  1.08  1.08  1.08  1.08  
11          1.80  1.80  1.80  1.80  1.44  1.80  1.08  1.08  1.08  1.08  
12          1.80  1.80  1.80  1.80  1.44  1.80  1.08  1.08  1.08  1.08  
13          1.80  1.80  1.80  1.80  1.44  1.80  1.08  1.08  1.08  1.08  
14          1.80  1.80  1.80  1.80  1.44  1.80  1.08  1.08  1.08  1.08  
15          1.80  1.80  1.80  1.80  1.44  1.80  1.08  1.08  1.08  1.08  
16          1.80  1.80  1.80  1.80  1.44  1.80  1.08  1.08  1.08  1.08  
17          1.80  1.80  1.80  1.80  1.44  1.80  1.08  1.08  1.08  1.08  
18          1.80  1.80  1.80  1.80  1.44  1.80  1.08  1.08  1.08  1.08  
19          1.80  1.80  1.80  1.80  1.44  1.80  1.08  1.08  1.08  1.08  
20          1.80  1.80  1.80  1.80  1.44  1.80  1.08  1.08  1.08  1.08  
21          1.80  1.80  1.80  1.80  1.44  1.80  1.08  1.08  1.08  1.08  
22          1.80  1.80  1.80  1.80  1.44  1.80  1.08  1.08  1.08  1.08  
23          1.80  1.80  1.80  1.80  1.44  1.80  1.08  1.08  1.08  1.08  
24          1.80  1.80  1.80  1.80  1.44  1.80  1.08  1.08  1.08  1.08  
25          1.71  1.71  1.71  1.71  1.36  1.71  1.03  1.03  1.03  1.03  
26          1.71  1.71  1.71  1.71  1.36  1.71  1.03  1.03  1.03  1.03  
27          1.71  1.71  1.71  1.71  1.36  1.71  1.03  1.03  1.03  1.03  
28          1.71  1.71  1.71  1.71  1.36  1.71  1.03  1.03  1.03  1.03  
29          1.71  1.71  1.71  1.71  1.36  1.71  1.03  1.03  1.03  1.03  
30          1.71  1.71  1.71  1.71  1.36  1.71  1.03  1.03  1.03  1.03  
31          1.71  1.71  1.71  1.71  1.36  1.71  1.03  1.03  1.03  1.03  
32          1.71  1.71  1.71  1.71  1.36  1.71  1.03  1.03  1.03  1.03  
33          1.71  1.71  1.71  1.71  1.36  1.71  1.03  1.03  1.03  1.03  
34          1.80  1.80  1.80  1.80  1.44  1.80  1.08  1.08  1.08  1.08  
35          1.80  1.80  1.80  1.80  1.44  1.80  1.08  1.08  1.08  1.08  
36          1.80  1.80  1.80  1.80  1.44  1.80  1.08  1.08  1.08  1.08  
37          1.80  1.80  1.80  1.80  1.44  1.80  1.08  1.08  1.08  1.08  
38          1.80  1.80  1.80  1.80  1.44  1.80  1.08  1.08  1.08  1.08  
39          1.80  1.80  1.80  1.80  1.44  1.80  1.08  1.08  1.08  1.08  
40          1.80  1.80  1.80  1.80  1.44  1.80  1.08  1.08  1.08  1.08  
41          1.80  1.80  1.80  1.80  1.44  1.80  1.08  1.08  1.08  1.08  
42          1.80  1.80  1.80  1.80  1.44  1.80  1.08  1.08  1.08  1.08  
43          1.80  1.80  1.80  1.80  1.44  1.80  1.08  1.08  1.08  1.08  
44          1.80  1.80  1.80  1.80  1.44  1.80  1.08  1.08  1.08  1.08  
45          1.80  1.80  1.80  1.80  1.44  1.80  1.08  1.08  1.08  1.08  

[*,*,F2 ]:  K1    K2    K3    K4    K5    K6    K7    K8    K9    K10   :=
1           1.64  1.64  1.64  1.64  1.30  1.64  0.98  0.98  0.98  0.98  
2           1.64  1.64  1.64  1.64  1.30  1.64  0.98  0.98  0.98  0.98  
3           1.64  1.64  1.64  1.64  1.30  1.64  0.98  0.98  0.98  0.98  
4           1.64  1.64  1.64  1.64  1.30  1.64  0.98  0.98  0.98  0.98  
5           1.64  1.64  1.64  1.64  1.30  1.64  0.98  0.98  0.98  0.98  
6           1.64  1.64  1.64  1.64  1.30  1.64  0.98  0.98  0.98  0.98  
7           1.64  1.64  1.64  1.64  1.30  1.64  0.98  0.98  0.98  0.98  
8           1.64  1.64  1.64  1.64  1.30  1.64  0.98  0.98  0.98  0.98  
9           1.64  1.64  1.64  1.64  1.30  1.64  0.98  0.98  0.98  0.98  
10          1.64  1.64  1.64  1.64  1.30  1.64  0.98  0.98  0.98  0.98  
11          1.64  1.64  1.64  1.64  1.30  1.64  0.98  0.98  0.98  0.98  
12          1.64  1.64  1.64  1.64  1.30  1.64  0.98  0.98  0.98  0.98  
13          1.64  1.64  1.64  1.64  1.30  1.64  0.98  0.98  0.98  0.98  
14          1.64  1.64  1.64  1.64  1.30  1.64  0.98  0.98  0.98  0.98  
15          1.64  1.64  1.64  1.64  1.30  1.64  0.98  0.98  0.98  0.98  
16          1.64  1.64  1.64  1.64  1.30  1.64  0.98  0.98  0.98  0.98  
17          1.64  1.64  1.64  1.64  1.30  1.64  0.98  0.98  0.98  0.98  
18          1.64  1.64  1.64  1.64  1.30  1.64  0.98  0.98  0.98  0.98  
19          1.64  1.64  1.64  1.64  1.30  1.64  0.98  0.98  0.98  0.98  
20          1.64  1.64  1.64  1.64  1.30  1.64  0.98  0.98  0.98  0.98  
21          1.64  1.64  1.64  1.64  1.30  1.64  0.98  0.98  0.98  0.98  
22          1.64  1.64  1.64  1.64  1.30  1.64  0.98  0.98  0.98  0.98  
23          1.64  1.64  1.64  1.64  1.30  1.64  0.98  0.98  0.98  0.98  
24          1.64  1.64  1.64  1.64  1.30  1.64  0.98  0.98  0.98  0.98  
25          1.55  1.55  1.55  1.55  1.24  1.55  0.93  0.93  0.93  0.93  
26          1.55  1.55  1.55  1.55  1.24  1.55  0.93  0.93  0.93  0.93  
27          1.55  1.55  1.55  1.55  1.24  1.55  0.93  0.93  0.93  0.93  
28          1.55  1.55  1.55  1.55  1.24  1.55  0.93  0.93  0.93  0.93  
29          1.55  1.55  1.55  1.55  1.24  1.55  0.93  0.93  0.93  0.93  
30          1.55  1.55  1.55  1.55  1.24  1.55  0.93  0.93  0.93  0.93  
31          1.55  1.55  1.55  1.55  1.24  1.55  0.93  0.93  0.93  0.93  
32          1.55  1.55  1.55  1.55  1.24  1.55  0.93  0.93  0.93  0.93  
33          1.55  1.55  1.55  1.55  1.24  1.55  0.93  0.93  0.93  0.93  
34          1.64  1.64  1.64  1.64  1.30  1.64  0.98  0.98  0.98  0.98  
35          1.64  1.64  1.64  1.64  1.30  1.64  0.98  0.98  0.98  0.98  
36          1.64  1.64  1.64  1.64  1.30  1.64  0.98  0.98  0.98  0.98  
37          1.64  1.64  1.64  1.64  1.30  1.64  0.98  0.98  0.98  0.98  
38          1.64  1.64  1.64  1.64  1.30  1.64  0.98  0.98  0.98  0.98  
39          1.64  1.64  1.64  1.64  1.30  1.64  0.98  0.98  0.98  0.98  
40          1.64  1.64  1.64  1.64  1.30  1.64  0.98  0.98  0.98  0.98  
41          1.64  1.64  1.64  1.64  1.30  1.64  0.98  0.98  0.98  0.98  
42          1.64  1.64  1.64  1.64  1.30  1.64  0.98  0.98  0.98  0.98  
43          1.64  1.64  1.64  1.64  1.30  1.64  0.98  0.98  0.98  0.98  
44          1.64  1.64  1.64  1.64  1.30  1.64  0.98  0.98  0.98  0.98  
45          1.64  1.64  1.64  1.64  1.30  1.64  0.98  0.98  0.98  0.98  

[*,*,F3 ]:  K1    K2    K3    K4    K5    K6    K7    K8    K9    K10   :=
1           1.97  1.97  1.97  1.97  1.57  1.97  1.18  1.18  1.18  1.18  
2           1.97  1.97  1.97  1.97  1.57  1.97  1.18  1.18  1.18  1.18  
3           1.97  1.97  1.97  1.97  1.57  1.97  1.18  1.18  1.18  1.18  
4           1.97  1.97  1.97  1.97  1.57  1.97  1.18  1.18  1.18  1.18  
5           1.97  1.97  1.97  1.97  1.57  1.97  1.18  1.18  1.18  1.18  
6           1.97  1.97  1.97  1.97  1.57  1.97  1.18  1.18  1.18  1.18  
7           1.97  1.97  1.97  1.97  1.57  1.97  1.18  1.18  1.18  1.18  
8           1.97  1.97  1.97  1.97  1.57  1.97  1.18  1.18  1.18  1.18  
9           1.97  1.97  1.97  1.97  1.57  1.97  1.18  1.18  1.18  1.18  
10          1.97  1.97  1.97  1.97  1.57  1.97  1.18  1.18  1.18  1.18  
11          1.97  1.97  1.97  1.97  1.57  1.97  1.18  1.18  1.18  1.18  
12          1.97  1.97  1.97  1.97  1.57  1.97  1.18  1.18  1.18  1.18  
13          1.97  1.97  1.97  1.97  1.57  1.97  1.18  1.18  1.18  1.18  
14          1.97  1.97  1.97  1.97  1.57  1.97  1.18  1.18  1.18  1.18  
15          1.97  1.97  1.97  1.97  1.57  1.97  1.18  1.18  1.18  1.18  
16          1.97  1.97  1.97  1.97  1.57  1.97  1.18  1.18  1.18  1.18  
17          1.97  1.97  1.97  1.97  1.57  1.97  1.18  1.18  1.18  1.18  
18          1.97  1.97  1.97  1.97  1.57  1.97  1.18  1.18  1.18  1.18  
19          1.97  1.97  1.97  1.97  1.57  1.97  1.18  1.18  1.18  1.18  
20          1.97  1.97  1.97  1.97  1.57  1.97  1.18  1.18  1.18  1.18  
21          1.97  1.97  1.97  1.97  1.57  1.97  1.18  1.18  1.18  1.18  
22          1.97  1.97  1.97  1.97  1.57  1.97  1.18  1.18  1.18  1.18  
23          1.97  1.97  1.97  1.97  1.57  1.97  1.18  1.18  1.18  1.18  
24          1.97  1.97  1.97  1.97  1.57  1.97  1.18  1.18  1.18  1.18  
25          1.87  1.87  1.87  1.87  1.49  1.87  1.12  1.12  1.12  1.12  
26          1.87  1.87  1.87  1.87  1.49  1.87  1.12  1.12  1.12  1.12  
27          1.87  1.87  1.87  1.87  1.49  1.87  1.12  1.12  1.12  1.12  
28          1.87  1.87  1.87  1.87  1.49  1.87  1.12  1.12  1.12  1.12  
29          1.87  1.87  1.87  1.87  1.49  1.87  1.12  1.12  1.12  1.12  
30          1.87  1.87  1.87  1.87  1.49  1.87  1.12  1.12  1.12  1.12  
31          1.87  1.87  1.87  1.87  1.49  1.87  1.12  1.12  1.12  1.12  
32          1.87  1.87  1.87  1.87  1.49  1.87  1.12  1.12  1.12  1.12  
33          1.87  1.87  1.87  1.87  1.49  1.87  1.12  1.12  1.12  1.12  
34          1.97  1.97  1.97  1.97  1.57  1.97  1.18  1.18  1.18  1.18  
35          1.97  1.97  1.97  1.97  1.57  1.97  1.18  1.18  1.18  1.18  
36          1.97  1.97  1.97  1.97  1.57  1.97  1.18  1.18  1.18  1.18  
37          1.97  1.97  1.97  1.97  1.57  1.97  1.18  1.18  1.18  1.18  
38          1.97  1.97  1.97  1.97  1.57  1.97  1.18  1.18  1.18  1.18  
39          1.97  1.97  1.97  1.97  1.57  1.97  1.18  1.18  1.18  1.18  
40          1.97  1.97  1.97  1.97  1.57  1.97  1.18  1.18  1.18  1.18  
41          1.97  1.97  1.97  1.97  1.57  1.97  1.18  1.18  1.18  1.18  
42          1.97  1.97  1.97  1.97  1.57  1.97  1.18  1.18  1.18  1.18  
43          1.97  1.97  1.97  1.97  1.57  1.97  1.18  1.18  1.18  1.18  
44          1.97  1.97  1.97  1.97  1.57  1.97  1.18  1.18  1.18  1.18  
45          1.97  1.97  1.97  1.97  1.57  1.97  1.18  1.18  1.18  1.18  
; # downloads resource k can do at front f in time t if intermediate time slot

param E:= 

[*,*,F1 ]:  K1    K2    K3    K4    K5    K6    K7    K8    K9    K10   :=
1           0.49  0.43  0.14  0.51  0.49  0.67  0.11  0.25  0.11  0.52  
2           0.49  0.43  0.14  0.51  0.49  0.67  0.11  0.25  0.11  0.52  
3           0.49  0.43  0.14  0.51  0.49  0.67  0.11  0.25  0.11  0.52  
4           0.49  0.43  0.14  0.51  0.49  0.67  0.11  0.25  0.11  0.52  
5           0.49  0.43  0.14  0.51  0.49  0.67  0.11  0.25  0.11  0.52  
6           0.49  0.43  0.14  0.51  0.49  0.67  0.11  0.25  0.11  0.52  
7           0.49  0.43  0.14  0.51  0.49  0.67  0.11  0.25  0.11  0.52  
8           0.49  0.43  0.14  0.51  0.49  0.67  0.11  0.25  0.11  0.52  
9           0.49  0.43  0.14  0.51  0.49  0.67  0.11  0.25  0.11  0.52  
10          0.49  0.43  0.14  0.51  0.49  0.67  0.11  0.25  0.11  0.52  
11          0.49  0.43  0.14  0.51  0.49  0.67  0.11  0.25  0.11  0.52  
12          0.49  0.43  0.14  0.51  0.49  0.67  0.11  0.25  0.11  0.52  
13          0.49  0.43  0.14  0.51  0.49  0.67  0.11  0.25  0.11  0.52  
14          0.49  0.43  0.14  0.51  0.49  0.67  0.11  0.25  0.11  0.52  
15          0.49  0.43  0.14  0.51  0.49  0.67  0.11  0.25  0.11  0.52  
16          0.49  0.43  0.14  0.51  0.49  0.67  0.11  0.25  0.11  0.52  
17          0.49  0.43  0.14  0.51  0.49  0.67  0.11  0.25  0.11  0.52  
18          0.49  0.43  0.14  0.51  0.49  0.67  0.11  0.25  0.11  0.52  
19          0.49  0.43  0.14  0.51  0.49  0.67  0.11  0.25  0.11  0.52  
20          0.49  0.43  0.14  0.51  0.49  0.67  0.11  0.25  0.11  0.52  
21          0.49  0.43  0.14  0.51  0.49  0.67  0.11  0.25  0.11  0.52  
22          0.49  0.43  0.14  0.51  0.49  0.67  0.11  0.25  0.11  0.52  
23          0.49  0.43  0.14  0.51  0.49  0.67  0.11  0.25  0.11  0.52  
24          0.49  0.43  0.14  0.51  0.49  0.67  0.11  0.25  0.11  0.52  
25          0.46  0.41  0.14  0.48  0.46  0.63  0.10  0.24  0.10  0.49  
26          0.46  0.41  0.14  0.48  0.46  0.63  0.10  0.24  0.10  0.49  
27          0.46  0.41  0.14  0.48  0.46  0.63  0.10  0.24  0.10  0.49  
28          0.46  0.41  0.14  0.48  0.46  0.63  0.10  0.24  0.10  0.49  
29          0.46  0.41  0.14  0.48  0.46  0.63  0.10  0.24  0.10  0.49  
30          0.46  0.41  0.14  0.48  0.46  0.63  0.10  0.24  0.10  0.49  
31          0.46  0.41  0.14  0.48  0.46  0.63  0.10  0.24  0.10  0.49  
32          0.46  0.41  0.14  0.48  0.46  0.63  0.10  0.24  0.10  0.49  
33          0.46  0.41  0.14  0.48  0.46  0.63  0.10  0.24  0.10  0.49  
34          0.49  0.43  0.14  0.51  0.49  0.67  0.11  0.25  0.11  0.52  
35          0.49  0.43  0.14  0.51  0.49  0.67  0.11  0.25  0.11  0.52  
36          0.49  0.43  0.14  0.51  0.49  0.67  0.11  0.25  0.11  0.52  
37          0.49  0.43  0.14  0.51  0.49  0.67  0.11  0.25  0.11  0.52  
38          0.49  0.43  0.14  0.51  0.49  0.67  0.11  0.25  0.11  0.52  
39          0.49  0.43  0.14  0.51  0.49  0.67  0.11  0.25  0.11  0.52  
40          0.49  0.43  0.14  0.51  0.49  0.67  0.11  0.25  0.11  0.52  
41          0.49  0.43  0.14  0.51  0.49  0.67  0.11  0.25  0.11  0.52  
42          0.49  0.43  0.14  0.51  0.49  0.67  0.11  0.25  0.11  0.52  
43          0.49  0.43  0.14  0.51  0.49  0.67  0.11  0.25  0.11  0.52  
44          0.49  0.43  0.14  0.51  0.49  0.67  0.11  0.25  0.11  0.52  
45          0.49  0.43  0.14  0.51  0.49  0.67  0.11  0.25  0.11  0.52  

[*,*,F2 ]:  K1    K2    K3    K4    K5    K6    K7    K8    K9    K10   :=
1           0.57  0.38  0.13  0.61  0.56  0.65  0.07  0.21  0.09  0.52  
2           0.57  0.38  0.13  0.61  0.56  0.65  0.07  0.21  0.09  0.52  
3           0.57  0.38  0.13  0.61  0.56  0.65  0.07  0.21  0.09  0.52  
4           0.57  0.38  0.13  0.61  0.56  0.65  0.07  0.21  0.09  0.52  
5           0.57  0.38  0.13  0.61  0.56  0.65  0.07  0.21  0.09  0.52  
6           0.57  0.38  0.13  0.61  0.56  0.65  0.07  0.21  0.09  0.52  
7           0.57  0.38  0.13  0.61  0.56  0.65  0.07  0.21  0.09  0.52  
8           0.57  0.38  0.13  0.61  0.56  0.65  0.07  0.21  0.09  0.52  
9           0.57  0.38  0.13  0.61  0.56  0.65  0.07  0.21  0.09  0.52  
10          0.57  0.38  0.13  0.61  0.56  0.65  0.07  0.21  0.09  0.52  
11          0.57  0.38  0.13  0.61  0.56  0.65  0.07  0.21  0.09  0.52  
12          0.57  0.38  0.13  0.61  0.56  0.65  0.07  0.21  0.09  0.52  
13          0.57  0.38  0.13  0.61  0.56  0.65  0.07  0.21  0.09  0.52  
14          0.57  0.38  0.13  0.61  0.56  0.65  0.07  0.21  0.09  0.52  
15          0.57  0.38  0.13  0.61  0.56  0.65  0.07  0.21  0.09  0.52  
16          0.57  0.38  0.13  0.61  0.56  0.65  0.07  0.21  0.09  0.52  
17          0.57  0.38  0.13  0.61  0.56  0.65  0.07  0.21  0.09  0.52  
18          0.57  0.38  0.13  0.61  0.56  0.65  0.07  0.21  0.09  0.52  
19          0.57  0.38  0.13  0.61  0.56  0.65  0.07  0.21  0.09  0.52  
20          0.57  0.38  0.13  0.61  0.56  0.65  0.07  0.21  0.09  0.52  
21          0.57  0.38  0.13  0.61  0.56  0.65  0.07  0.21  0.09  0.52  
22          0.57  0.38  0.13  0.61  0.56  0.65  0.07  0.21  0.09  0.52  
23          0.57  0.38  0.13  0.61  0.56  0.65  0.07  0.21  0.09  0.52  
24          0.57  0.38  0.13  0.61  0.56  0.65  0.07  0.21  0.09  0.52  
25          0.54  0.36  0.12  0.58  0.53  0.62  0.07  0.20  0.08  0.49  
26          0.54  0.36  0.12  0.58  0.53  0.62  0.07  0.20  0.08  0.49  
27          0.54  0.36  0.12  0.58  0.53  0.62  0.07  0.20  0.08  0.49  
28          0.54  0.36  0.12  0.58  0.53  0.62  0.07  0.20  0.08  0.49  
29          0.54  0.36  0.12  0.58  0.53  0.62  0.07  0.20  0.08  0.49  
30          0.54  0.36  0.12  0.58  0.53  0.62  0.07  0.20  0.08  0.49  
31          0.54  0.36  0.12  0.58  0.53  0.62  0.07  0.20  0.08  0.49  
32          0.54  0.36  0.12  0.58  0.53  0.62  0.07  0.20  0.08  0.49  
33          0.54  0.36  0.12  0.58  0.53  0.62  0.07  0.20  0.08  0.49  
34          0.57  0.38  0.13  0.61  0.56  0.65  0.07  0.21  0.09  0.52  
35          0.57  0.38  0.13  0.61  0.56  0.65  0.07  0.21  0.09  0.52  
36          0.57  0.38  0.13  0.61  0.56  0.65  0.07  0.21  0.09  0.52  
37          0.57  0.38  0.13  0.61  0.56  0.65  0.07  0.21  0.09  0.52  
38          0.57  0.38  0.13  0.61  0.56  0.65  0.07  0.21  0.09  0.52  
39          0.57  0.38  0.13  0.61  0.56  0.65  0.07  0.21  0.09  0.52  
40          0.57  0.38  0.13  0.61  0.56  0.65  0.07  0.21  0.09  0.52  
41          0.57  0.38  0.13  0.61  0.56  0.65  0.07  0.21  0.09  0.52  
42          0.57  0.38  0.13  0.61  0.56  0.65  0.07  0.21  0.09  0.52  
43          0.57  0.38  0.13  0.61  0.56  0.65  0.07  0.21  0.09  0.52  
44          0.57  0.38  0.13  0.61  0.56  0.65  0.07  0.21  0.09  0.52  
45          0.57  0.38  0.13  0.61  0.56  0.65  0.07  0.21  0.09  0.52  

[*,*,F3 ]:  K1    K2    K3    K4    K5    K6    K7    K8    K9    K10   :=
1           0.51  0.34  0.14  0.55  0.66  0.83  0.12  0.27  0.18  0.53  
2           0.51  0.34  0.14  0.55  0.66  0.83  0.12  0.27  0.18  0.53  
3           0.51  0.34  0.14  0.55  0.66  0.83  0.12  0.27  0.18  0.53  
4           0.51  0.34  0.14  0.55  0.66  0.83  0.12  0.27  0.18  0.53  
5           0.51  0.34  0.14  0.55  0.66  0.83  0.12  0.27  0.18  0.53  
6           0.51  0.34  0.14  0.55  0.66  0.83  0.12  0.27  0.18  0.53  
7           0.51  0.34  0.14  0.55  0.66  0.83  0.12  0.27  0.18  0.53  
8           0.51  0.34  0.14  0.55  0.66  0.83  0.12  0.27  0.18  0.53  
9           0.51  0.34  0.14  0.55  0.66  0.83  0.12  0.27  0.18  0.53  
10          0.51  0.34  0.14  0.55  0.66  0.83  0.12  0.27  0.18  0.53  
11          0.51  0.34  0.14  0.55  0.66  0.83  0.12  0.27  0.18  0.53  
12          0.51  0.34  0.14  0.55  0.66  0.83  0.12  0.27  0.18  0.53  
13          0.51  0.34  0.14  0.55  0.66  0.83  0.12  0.27  0.18  0.53  
14          0.51  0.34  0.14  0.55  0.66  0.83  0.12  0.27  0.18  0.53  
15          0.51  0.34  0.14  0.55  0.66  0.83  0.12  0.27  0.18  0.53  
16          0.51  0.34  0.14  0.55  0.66  0.83  0.12  0.27  0.18  0.53  
17          0.51  0.34  0.14  0.55  0.66  0.83  0.12  0.27  0.18  0.53  
18          0.51  0.34  0.14  0.55  0.66  0.83  0.12  0.27  0.18  0.53  
19          0.51  0.34  0.14  0.55  0.66  0.83  0.12  0.27  0.18  0.53  
20          0.51  0.34  0.14  0.55  0.66  0.83  0.12  0.27  0.18  0.53  
21          0.51  0.34  0.14  0.55  0.66  0.83  0.12  0.27  0.18  0.53  
22          0.51  0.34  0.14  0.55  0.66  0.83  0.12  0.27  0.18  0.53  
23          0.51  0.34  0.14  0.55  0.66  0.83  0.12  0.27  0.18  0.53  
24          0.51  0.34  0.14  0.55  0.66  0.83  0.12  0.27  0.18  0.53  
25          0.49  0.32  0.13  0.52  0.63  0.79  0.11  0.26  0.17  0.50  
26          0.49  0.32  0.13  0.52  0.63  0.79  0.11  0.26  0.17  0.50  
27          0.49  0.32  0.13  0.52  0.63  0.79  0.11  0.26  0.17  0.50  
28          0.49  0.32  0.13  0.52  0.63  0.79  0.11  0.26  0.17  0.50  
29          0.49  0.32  0.13  0.52  0.63  0.79  0.11  0.26  0.17  0.50  
30          0.49  0.32  0.13  0.52  0.63  0.79  0.11  0.26  0.17  0.50  
31          0.49  0.32  0.13  0.52  0.63  0.79  0.11  0.26  0.17  0.50  
32          0.49  0.32  0.13  0.52  0.63  0.79  0.11  0.26  0.17  0.50  
33          0.49  0.32  0.13  0.52  0.63  0.79  0.11  0.26  0.17  0.50  
34          0.51  0.34  0.14  0.55  0.66  0.83  0.12  0.27  0.18  0.53  
35          0.51  0.34  0.14  0.55  0.66  0.83  0.12  0.27  0.18  0.53  
36          0.51  0.34  0.14  0.55  0.66  0.83  0.12  0.27  0.18  0.53  
37          0.51  0.34  0.14  0.55  0.66  0.83  0.12  0.27  0.18  0.53  
38          0.51  0.34  0.14  0.55  0.66  0.83  0.12  0.27  0.18  0.53  
39          0.51  0.34  0.14  0.55  0.66  0.83  0.12  0.27  0.18  0.53  
40          0.51  0.34  0.14  0.55  0.66  0.83  0.12  0.27  0.18  0.53  
41          0.51  0.34  0.14  0.55  0.66  0.83  0.12  0.27  0.18  0.53  
42          0.51  0.34  0.14  0.55  0.66  0.83  0.12  0.27  0.18  0.53  
43          0.51  0.34  0.14  0.55  0.66  0.83  0.12  0.27  0.18  0.53  
44          0.51  0.34  0.14  0.55  0.66  0.83  0.12  0.27  0.18  0.53  
45          0.51  0.34  0.14  0.55  0.66  0.83  0.12  0.27  0.18  0.53  
; # downloads resource k can do at front f in time t if starting or ending flight

param W: 
	F1        F2        F3        :=
1	947.57    947.57    947.57    
2	3790.29   3790.29   3790.29   
3	3790.29   3790.29   3790.29   
4	3790.29   3790.29   3790.29   
5	3790.29   3790.29   3790.29   
6	3790.29   3790.29   3790.29   
7	3790.29   3790.29   3790.29   
8	3790.29   3790.29   3790.29   
9	3790.29   3790.29   3790.29   
10	3790.29   3790.29   3790.29   
11	3790.29   3790.29   3790.29   
12	3790.29   3790.29   3790.29   
13	3790.29   3790.29   3790.29   
14	3790.29   3790.29   3790.29   
15	3790.29   3790.29   3790.29   
16	3790.29   3790.29   3790.29   
17	3790.29   3790.29   3790.29   
18	3790.29   3790.29   3790.29   
19	1684.57   1684.57   1684.57   
20	1684.57   1684.57   1684.57   
21	1684.57   1684.57   1684.57   
22	1684.57   1684.57   1684.57   
23	1684.57   1684.57   1684.57   
24	1684.57   1684.57   1684.57   
25	1684.57   1684.57   1684.57   
26	1684.57   1684.57   1684.57   
27	1684.57   1684.57   1684.57   
28	1684.57   1684.57   1684.57   
29	1684.57   1684.57   1684.57   
30	1684.57   1684.57   1684.57   
31	1684.57   1684.57   1684.57   
32	1684.57   1684.57   1684.57   
33	1684.57   1684.57   1684.57   
34	1684.57   1684.57   1684.57   
35	1684.57   1684.57   1684.57   
36	1684.57   1684.57   1684.57   
37	1684.57   1684.57   1684.57   
38	1684.57   1684.57   1684.57   
39	1684.57   1684.57   1684.57   
40	1684.57   1684.57   1684.57   
41	1684.57   1684.57   1684.57   
42	1684.57   1684.57   1684.57   
43	1684.57   1684.57   1684.57   
44	1684.57   1684.57   1684.57   
45	421.14    421.14    421.14    
; # water needed at front f in time slot t

param M := 100000000; 

param a1:= 10000000;

param a2:= 100;

param a3:= 0.0001;
